206664
66
65
67
49
50
51
52
54
42
53
21
25
4
3
5
6
20
19
31
8
7
9
10
15
16
17
37
18
11
12
32
33
70
68
48
44
23
22
36
35
34
40
39
38
63
64
71
72
73
41
60
59
58
57
62
61
55
56
74
14
13
30
29
26
27
28
43
24
46
45
47
69
2
1
75
0
